100 8
207 379
927 138
474 553
850 706
782 825
613 913
387 137
790 430
49 396
205 831
888 501
557 885
406 727
465 584
428 729
244 857
838 440
160 365
411 436
57 264
164 473
541 533
431 546
914 88
440 214
927 650
428 410
398 237
456 95
464 582
859 501
488 740
258 929
468 167
574 169
439 556
441 940
390 544
617 182
496 555
473 668
310 313
619 601
413 84
405 500
667 250
231 385
326 394
755 180
562 554
522 636
597 878
23 580
654 213
295 369
318 400
213 350
309 293
437 263
122 818
148 563
507 469
256 752
323 186
497 855
825 181
528 969
55 361
104 226
374 488
749 181
384 597
459 222
448 571
844 508
137 865
626 740
540 846
39 499
179 755
790 193
448 858
843 623
919 675
512 819
134 856
376 549
479 565
421 157
542 690
463 366
572 744
331 527
574 972
530 712
498 538
198 438
457 507
55 518
486 165
